92 1
70 57
65 50
68 25
102 22
12 8
10 38
47 4
67 84
14 43
56 120
93 105
76 48
78 47
73 84
82 61
100 63
11 77
21 118
88 76
92 50
17 80
34 143
53 82
6 64
38 86
67 56
17 107
74 119
60 151
81 85
27 107
70 109
20 81
79 145
48 100
17 136
35 141
104 94
51 180
16 185
23 131
20 107
18 113
87 169
13 135
64 199
49 142
98 107
27 206
74 185
2 208
92 125
15 132
22 185
46 204
41 145
55 129
88 198
69 219
88 229
64 241
12 226
57 229
55 161
43 199
71 172
37 157
39 195
70 225
40 235
44 221
55 177
73 186
52 258
87 265
17 265
102 179
78 178
24 240
86 251
61 259
86 201
38 271
90 276
70 210
63 255
97 276
75 268
94 287
63 266
94 243
7 281
23 323
44 264
101 251
81 286
14 279
22 261
46 266
